(set-logic ALL)
(declare-fun var0 () String)
(assert (str.in_re var0 (re.++ (re.+ (re.* (str.to_re "000"))) (re.++ (re.* (re.* (str.to_re "111"))) (re.++ (re.union (re.+ (str.to_re "22")) (re.+ (str.to_re "3"))) (re.++ (re.+ (re.* (str.to_re "444"))) (re.union (re.* (str.to_re "55")) (re.* (str.to_re "6")))))))))
(check-sat)